
Gurobi 6.5.2 (linux64) logging started Tue Mar 21 10:46:30 2017


Gurobi 6.5.2 (linux64) logging started Tue Mar 21 10:46:30 2017

Optimize a model with 101 rows, 663 columns and 1327 nonzeros
Coefficient statistics:
  Matrix range    [1e+00, 2e+00]
  Objective range [1e+00, 1e+02]
  Bounds range    [1e+00, 1e+00]
  RHS range       [1e+00, 1e+00]
Presolve removed 51 rows and 50 columns
Presolve time: 0.00s
Presolved: 50 rows, 613 columns, 1226 nonzeros
Variable types: 0 continuous, 613 integer (613 binary)

Root relaxation: objective 6.890000e+02, 78 iterations, 0.00 seconds

    Nodes    |    Current Node    |     Objective Bounds      |     Work
 Expl Unexpl |  Obj  Depth IntInf | Incumbent    BestBd   Gap | It/Node Time

     0     0  689.00000    0    4          -  689.00000      -     -    0s
     0     0  689.04167    0   15          -  689.04167      -     -    0s
     0     0  689.04545    0   15          -  689.04545      -     -    0s
     0     2  689.04545    0   15          -  689.04545      -     -    0s
* 1612   901              25     723.0000000  700.16000  3.16%   5.6    0s
* 2485   545              28     722.0000000  710.00000  1.66%   5.1    0s
* 2587   476              22     721.0000000  712.00000  1.25%   5.0    0s
* 2838   321              23     720.0000000  714.33333  0.79%   4.9    0s

Cutting planes:
  Gomory: 3
  MIR: 1
  Zero half: 3
  Lazy constraints: 146

Explored 3181 nodes (14667 simplex iterations) in 0.71 seconds
Thread count was 4 (of 4 available processors)

Optimal solution found (tolerance 1.00e-04)
Best objective 7.200000000000e+02, best bound 7.200000000000e+02, gap 0.0%
